************************************************************************
file with basedata            : j60_48.bas
initial value random generator: 1897230635
************************************************************************
projects                      :  1
jobs (incl. supersource/sink ):  62
horizon                       :  327
RESOURCES
  - renewable                 :  4   R
  - nonrenewable              :  0   N
  - doubly constrained        :  0   D
************************************************************************
PROJECT INFORMATION:
pronr.  #jobs rel.date duedate tardcost  MPM-Time
    1     60      0       77       14       77
************************************************************************
PRECEDENCE RELATIONS:
jobnr.    #modes  #successors   successors
   1        1          3           2   3   4
   2        1          3           7  23  57
   3        1          1          42
   4        1          3           5   6  11
   5        1          1           9
   6        1          1          37
   7        1          3           8  13  16
   8        1          3          10  12  28
   9        1          3          14  20  29
  10        1          2          18  30
  11        1          2          25  28
  12        1          3          32  36  60
  13        1          3          18  28  45
  14        1          3          15  19  38
  15        1          3          27  43  57
  16        1          3          17  21  22
  17        1          2          24  52
  18        1          2          21  26
  19        1          1          31
  20        1          3          34  39  41
  21        1          1          37
  22        1          1          33
  23        1          2          30  34
  24        1          2          45  58
  25        1          3          35  38  40
  26        1          2          43  46
  27        1          1          49
  28        1          2          42  51
  29        1          1          34
  30        1          2          44  48
  31        1          1          57
  32        1          1          41
  33        1          3          36  41  53
  34        1          2          35  49
  35        1          1          43
  36        1          3          45  52  59
  37        1          2          48  54
  38        1          1          48
  39        1          1          55
  40        1          1          51
  41        1          3          47  51  58
  42        1          3          44  47  50
  43        1          2          44  55
  44        1          2          56  58
  45        1          1          46
  46        1          1          47
  47        1          1          54
  48        1          3          49  53  55
  49        1          1          61
  50        1          2          53  54
  51        1          1          52
  52        1          1          56
  53        1          1          61
  54        1          1          56
  55        1          1          60
  56        1          1          61
  57        1          2          59  60
  58        1          1          59
  59        1          1          62
  60        1          1          62
  61        1          1          62
  62        1          0        
************************************************************************
REQUESTS/DURATIONS:
jobnr. mode duration  R 1  R 2  R 3  R 4
------------------------------------------------------------------------
  1      1     0       0    0    0    0
  2      1     9       9    5    9    7
  3      1     5       5   10    2    7
  4      1     5       9    6    1    7
  5      1     3       4   10    7    3
  6      1     2       5    6    2    3
  7      1     8       4    2    5    8
  8      1     8       5    4    4    7
  9      1     2       4    1    8    5
 10      1     8       1    3    9    3
 11      1     3       2    5   10    1
 12      1     1       3    5    6    1
 13      1     8      10    5    5    9
 14      1     9       3    4    6    7
 15      1     5       8    2    9    3
 16      1     3       8    9    2    6
 17      1     6       4    1    9    2
 18      1     3       9    5    1    7
 19      1     5       1    5    9    5
 20      1     2       1    2    4    4
 21      1     9       4    3    2    5
 22      1     4       1    2    9    2
 23      1     3       5    8    3    3
 24      1     9       1    6    7    2
 25      1     2      10    4    4    9
 26      1     6       2   10   10    2
 27      1     6       1    6    8    3
 28      1     7       9    6    3    4
 29      1    10       1   10    9    7
 30      1     6      10   10    7    5
 31      1     8       5   10    2    8
 32      1     8       9    3    3    8
 33      1     8       4    1    3    5
 34      1     5       6    6    6    6
 35      1     8       2   10    6    8
 36      1     4       6    6    2    9
 37      1     3       7   10    7    8
 38      1     4       1    2    2    8
 39      1     2       8    3   10    2
 40      1     3       4    7    4    5
 41      1     5       6    3    9    8
 42      1     5       3    4    6    3
 43      1     2       1    5    3    9
 44      1     2       6    8    2    4
 45      1     1      10   10    1   10
 46      1     5       6    4    7    6
 47      1     9       8    9   10    4
 48      1     3       1    5    9    9
 49      1     2       6    8    4    2
 50      1    10       3    6    7    8
 51      1     8       7   10    6    7
 52      1     5      10    3    7    2
 53      1     8       7    7    8    9
 54      1     3       7    3    8    4
 55      1     4       1    8    8    9
 56      1     8       3    5    6    2
 57      1     7       6    3    8    2
 58      1     9      10    8    4    5
 59      1    10       6    6   10    1
 60      1     1       9    5    9    1
 61      1    10       3    9    4    3
 62      1     0       0    0    0    0
************************************************************************
RESOURCEAVAILABILITIES:
  R 1  R 2  R 3  R 4
   44   45   53   45
************************************************************************
